c This is it
p cnf 216 1314
5 6 7 8 0
9 10 11 12 0
-5 -6 0
-5 -7 0
-5 -8 0
-6 -7 0
-6 -8 0
-7 -8 0
-9 -10 0
-9 -11 0
-9 -12 0
-10 -11 0
-10 -12 0
-11 -12 0
1 2 0
3 4 0
-1 -2 0
-3 -4 0
-13 0
14 0
-15 0
-16 0
-17 0
-18 0
-19 0
-20 0
-21 0
-22 0
-23 0
-24 0
-25 0
-139 0
-140 0
-141 0
-142 0
-143 0
-144 0
-145 0
146 0
-147 0
-148 0
-149 0
-150 0
-151 0
-178 0
-179 0
180 0
-181 0
-182 0
-183 0
-184 0
-185 0
-186 0
-187 0
-188 0
-189 0
-190 0
-178 191 0
-191 204 0
-13 -28 0
-13 -29 0
-13 -30 0
-13 -31 0
-13 -32 0
-13 -33 0
-13 -34 0
-13 -35 0
-13 -36 0
-13 -37 0
-13 -38 0
-26 -41 0
-26 -42 0
-26 -43 0
-26 -44 0
-26 -45 0
-26 -46 0
-26 -47 0
-26 -48 0
-26 -49 0
-26 -50 0
-26 -51 0
-13 -26 2 0
-26 -39 4 0
-13 -5 0
-13 -6 0
-13 -7 0
-26 -9 0
-26 -10 0
-26 -11 0
-13 -141 154 0
-13 -142 155 0
-13 -143 156 0
-13 -144 157 0
-13 -145 158 0
-13 -146 159 0
-13 -147 160 0
-13 -148 161 0
-13 -149 162 0
-13 -150 163 0
-13 -151 164 0
-26 -154 167 0
-26 -155 168 0
-26 -156 169 0
-26 -157 170 0
-26 -158 171 0
-26 -159 172 0
-26 -160 173 0
-26 -161 174 0
-26 -162 175 0
-26 -163 176 0
-26 -164 177 0
-139 2 152 0
-152 4 165 0
-13 26 1 0
-26 39 3 0
-13 -1 -8 27 0
-26 -3 -12 40 0
-13 -1 -8 -153 0
-26 -3 -12 -166 0
-13 -2 -8 140 0
-26 -4 -12 153 0
-13 -2 -8 -153 0
-26 -4 -12 -166 0
-139 -2 -8 153 0
-152 -4 -12 166 0
-139 -1 -8 -153 0
-152 -3 -12 -166 0
-139 -1 -8 -192 0
-152 -3 -12 -205 0
-179 192 0
-192 205 0
-14 -28 0
-14 -30 0
-14 -31 0
-14 -32 0
-14 -33 0
-14 -34 0
-14 -35 0
-14 -36 0
-14 -37 0
-14 -38 0
-27 -41 0
-27 -43 0
-27 -44 0
-27 -45 0
-27 -46 0
-27 -47 0
-27 -48 0
-27 -49 0
-27 -50 0
-27 -51 0
-14 -27 2 0
-27 -40 4 0
-14 -5 0
-14 -6 0
-27 -9 0
-27 -10 0
-14 -141 154 0
-14 -143 156 0
-14 -144 157 0
-14 -145 158 0
-14 -146 159 0
-14 -147 160 0
-14 -148 161 0
-14 -149 162 0
-14 -150 163 0
-14 -151 164 0
-27 -154 167 0
-27 -156 169 0
-27 -157 170 0
-27 -158 171 0
-27 -159 172 0
-27 -160 173 0
-27 -161 174 0
-27 -162 175 0
-27 -163 176 0
-27 -164 177 0
-140 2 153 0
-153 4 166 0
-14 27 1 0
-27 40 3 0
-14 -1 -7 26 0
-27 -3 -11 39 0
-14 -1 -7 -152 0
-27 -3 -11 -165 0
-14 -1 -7 -29 0
-27 -3 -11 -42 0
-14 -2 -7 139 0
-27 -4 -11 152 0
-14 -2 -7 -152 0
-27 -4 -11 -165 0
-140 -2 -7 152 0
-153 -4 -11 165 0
-140 -1 -7 -152 0
-153 -3 -11 -165 0
-140 -1 -7 -191 0
-153 -3 -11 -204 0
-14 -7 -142 155 0
-27 -11 -155 168 0
-14 -1 -8 29 0
-27 -3 -12 42 0
-14 -1 -8 -155 0
-27 -3 -12 -168 0
-14 -1 -8 -26 0
-27 -3 -12 -39 0
-14 -2 -8 142 0
-27 -4 -12 155 0
-14 -2 -8 -155 0
-27 -4 -12 -168 0
-140 -2 -8 155 0
-153 -4 -12 168 0
-140 -1 -8 -155 0
-153 -3 -12 -168 0
-140 -1 -8 -194 0
-153 -3 -12 -207 0
-14 -8 -139 152 0
-27 -12 -152 165 0
-180 193 0
-193 206 0
-15 -26 0
-15 -27 0
-15 -29 0
-15 -31 0
-15 -32 0
-15 -33 0
-15 -34 0
-15 -35 0
-15 -36 0
-15 -37 0
-15 -38 0
-28 -39 0
-28 -40 0
-28 -42 0
-28 -44 0
-28 -45 0
-28 -46 0
-28 -47 0
-28 -48 0
-28 -49 0
-28 -50 0
-28 -51 0
-15 -28 2 0
-28 -41 4 0
-15 -5 0
-15 -6 0
-15 -7 0
-28 -9 0
-28 -10 0
-28 -11 0
-15 -139 152 0
-15 -140 153 0
-15 -142 155 0
-15 -144 157 0
-15 -145 158 0
-15 -146 159 0
-15 -147 160 0
-15 -148 161 0
-15 -149 162 0
-15 -150 163 0
-15 -151 164 0
-28 -152 165 0
-28 -153 166 0
-28 -155 168 0
-28 -157 170 0
-28 -158 171 0
-28 -159 172 0
-28 -160 173 0
-28 -161 174 0
-28 -162 175 0
-28 -163 176 0
-28 -164 177 0
-141 2 154 0
-154 4 167 0
-15 28 1 0
-28 41 3 0
-15 -1 -8 30 0
-28 -3 -12 43 0
-15 -1 -8 -156 0
-28 -3 -12 -169 0
-15 -2 -8 143 0
-28 -4 -12 156 0
-15 -2 -8 -156 0
-28 -4 -12 -169 0
-141 -2 -8 156 0
-154 -4 -12 169 0
-141 -1 -8 -156 0
-154 -3 -12 -169 0
-141 -1 -8 -195 0
-154 -3 -12 -208 0
-181 194 0
-194 207 0
-16 -26 0
-16 -28 0
-16 -30 0
-16 -32 0
-16 -33 0
-16 -34 0
-16 -35 0
-16 -36 0
-16 -37 0
-16 -38 0
-29 -39 0
-29 -41 0
-29 -43 0
-29 -45 0
-29 -46 0
-29 -47 0
-29 -48 0
-29 -49 0
-29 -50 0
-29 -51 0
-16 -29 2 0
-29 -42 4 0
-16 -5 0
-16 -6 0
-29 -9 0
-29 -10 0
-16 -139 152 0
-16 -141 154 0
-16 -143 156 0
-16 -145 158 0
-16 -146 159 0
-16 -147 160 0
-16 -148 161 0
-16 -149 162 0
-16 -150 163 0
-16 -151 164 0
-29 -152 165 0
-29 -154 167 0
-29 -156 169 0
-29 -158 171 0
-29 -159 172 0
-29 -160 173 0
-29 -161 174 0
-29 -162 175 0
-29 -163 176 0
-29 -164 177 0
-142 2 155 0
-155 4 168 0
-16 29 1 0
-29 42 3 0
-16 -1 -7 27 0
-29 -3 -11 40 0
-16 -1 -7 -153 0
-29 -3 -11 -166 0
-16 -1 -7 -31 0
-29 -3 -11 -44 0
-16 -2 -7 140 0
-29 -4 -11 153 0
-16 -2 -7 -153 0
-29 -4 -11 -166 0
-142 -2 -7 153 0
-155 -4 -11 166 0
-142 -1 -7 -153 0
-155 -3 -11 -166 0
-142 -1 -7 -192 0
-155 -3 -11 -205 0
-16 -7 -144 157 0
-29 -11 -157 170 0
-16 -1 -8 31 0
-29 -3 -12 44 0
-16 -1 -8 -157 0
-29 -3 -12 -170 0
-16 -1 -8 -27 0
-29 -3 -12 -40 0
-16 -2 -8 144 0
-29 -4 -12 157 0
-16 -2 -8 -157 0
-29 -4 -12 -170 0
-142 -2 -8 157 0
-155 -4 -12 170 0
-142 -1 -8 -157 0
-155 -3 -12 -170 0
-142 -1 -8 -196 0
-155 -3 -12 -209 0
-16 -8 -140 153 0
-29 -12 -153 166 0
-182 195 0
-195 208 0
-17 -26 0
-17 -27 0
-17 -29 0
-17 -31 0
-17 -32 0
-17 -33 0
-17 -35 0
-17 -36 0
-17 -37 0
-17 -38 0
-30 -39 0
-30 -40 0
-30 -42 0
-30 -44 0
-30 -45 0
-30 -46 0
-30 -48 0
-30 -49 0
-30 -50 0
-30 -51 0
-17 -30 2 0
-30 -43 4 0
-17 -5 0
-17 -6 0
-30 -9 0
-30 -10 0
-17 -139 152 0
-17 -140 153 0
-17 -142 155 0
-17 -144 157 0
-17 -145 158 0
-17 -146 159 0
-17 -148 161 0
-17 -149 162 0
-17 -150 163 0
-17 -151 164 0
-30 -152 165 0
-30 -153 166 0
-30 -155 168 0
-30 -157 170 0
-30 -158 171 0
-30 -159 172 0
-30 -161 174 0
-30 -162 175 0
-30 -163 176 0
-30 -164 177 0
-143 2 156 0
-156 4 169 0
-17 30 1 0
-30 43 3 0
-17 -1 -7 28 0
-30 -3 -11 41 0
-17 -1 -7 -154 0
-30 -3 -11 -167 0
-17 -1 -7 -34 0
-30 -3 -11 -47 0
-17 -2 -7 141 0
-30 -4 -11 154 0
-17 -2 -7 -154 0
-30 -4 -11 -167 0
-143 -2 -7 154 0
-156 -4 -11 167 0
-143 -1 -7 -154 0
-156 -3 -11 -167 0
-143 -1 -7 -193 0
-156 -3 -11 -206 0
-17 -7 -147 160 0
-30 -11 -160 173 0
-17 -1 -8 34 0
-30 -3 -12 47 0
-17 -1 -8 -160 0
-30 -3 -12 -173 0
-17 -1 -8 -28 0
-30 -3 -12 -41 0
-17 -2 -8 147 0
-30 -4 -12 160 0
-17 -2 -8 -160 0
-30 -4 -12 -173 0
-143 -2 -8 160 0
-156 -4 -12 173 0
-143 -1 -8 -160 0
-156 -3 -12 -173 0
-143 -1 -8 -199 0
-156 -3 -12 -212 0
-17 -8 -141 154 0
-30 -12 -154 167 0
-183 196 0
-196 209 0
-18 -26 0
-18 -27 0
-18 -28 0
-18 -30 0
-18 -33 0
-18 -34 0
-18 -36 0
-18 -37 0
-18 -38 0
-31 -39 0
-31 -40 0
-31 -41 0
-31 -43 0
-31 -46 0
-31 -47 0
-31 -49 0
-31 -50 0
-31 -51 0
-18 -31 2 0
-31 -44 4 0
-18 -5 0
-31 -9 0
-18 -139 152 0
-18 -140 153 0
-18 -141 154 0
-18 -143 156 0
-18 -146 159 0
-18 -147 160 0
-18 -149 162 0
-18 -150 163 0
-18 -151 164 0
-31 -152 165 0
-31 -153 166 0
-31 -154 167 0
-31 -156 169 0
-31 -159 172 0
-31 -160 173 0
-31 -162 175 0
-31 -163 176 0
-31 -164 177 0
-144 2 157 0
-157 4 170 0
-18 31 1 0
-31 44 3 0
-18 -1 -6 32 0
-31 -3 -10 45 0
-18 -1 -6 -158 0
-31 -3 -10 -171 0
-18 -1 -6 -29 0
-18 -1 -6 -35 0
-31 -3 -10 -42 0
-31 -3 -10 -48 0
-18 -2 -6 145 0
-31 -4 -10 158 0
-18 -2 -6 -158 0
-31 -4 -10 -171 0
-144 -2 -6 158 0
-157 -4 -10 171 0
-144 -1 -6 -158 0
-157 -3 -10 -171 0
-144 -1 -6 -197 0
-157 -3 -10 -210 0
-18 -6 -142 155 0
-18 -6 -148 161 0
-31 -10 -155 168 0
-31 -10 -161 174 0
-18 -1 -7 29 0
-31 -3 -11 42 0
-18 -1 -7 -155 0
-31 -3 -11 -168 0
-18 -1 -7 -32 0
-18 -1 -7 -35 0
-31 -3 -11 -45 0
-31 -3 -11 -48 0
-18 -2 -7 142 0
-31 -4 -11 155 0
-18 -2 -7 -155 0
-31 -4 -11 -168 0
-144 -2 -7 155 0
-157 -4 -11 168 0
-144 -1 -7 -155 0
-157 -3 -11 -168 0
-144 -1 -7 -194 0
-157 -3 -11 -207 0
-18 -7 -145 158 0
-18 -7 -148 161 0
-31 -11 -158 171 0
-31 -11 -161 174 0
-18 -1 -8 35 0
-31 -3 -12 48 0
-18 -1 -8 -161 0
-31 -3 -12 -174 0
-18 -1 -8 -32 0
-18 -1 -8 -29 0
-31 -3 -12 -45 0
-31 -3 -12 -42 0
-18 -2 -8 148 0
-31 -4 -12 161 0
-18 -2 -8 -161 0
-31 -4 -12 -174 0
-144 -2 -8 161 0
-157 -4 -12 174 0
-144 -1 -8 -161 0
-157 -3 -12 -174 0
-144 -1 -8 -200 0
-157 -3 -12 -213 0
-18 -8 -145 158 0
-18 -8 -142 155 0
-31 -12 -158 171 0
-31 -12 -155 168 0
-184 197 0
-197 210 0
-19 -26 0
-19 -27 0
-19 -28 0
-19 -29 0
-19 -30 0
-19 -34 0
-19 -35 0
-19 -37 0
-19 -38 0
-32 -39 0
-32 -40 0
-32 -41 0
-32 -42 0
-32 -43 0
-32 -47 0
-32 -48 0
-32 -50 0
-32 -51 0
-19 -32 2 0
-32 -45 4 0
-19 -7 0
-32 -11 0
-19 -139 152 0
-19 -140 153 0
-19 -141 154 0
-19 -142 155 0
-19 -143 156 0
-19 -147 160 0
-19 -148 161 0
-19 -150 163 0
-19 -151 164 0
-32 -152 165 0
-32 -153 166 0
-32 -154 167 0
-32 -155 168 0
-32 -156 169 0
-32 -160 173 0
-32 -161 174 0
-32 -163 176 0
-32 -164 177 0
-145 2 158 0
-158 4 171 0
-19 32 1 0
-32 45 3 0
-19 -1 -5 31 0
-32 -3 -9 44 0
-19 -1 -5 -157 0
-32 -3 -9 -170 0
-19 -1 -5 -33 0
-19 -1 -5 -36 0
-32 -3 -9 -46 0
-32 -3 -9 -49 0
-19 -2 -5 144 0
-32 -4 -9 157 0
-19 -2 -5 -157 0
-32 -4 -9 -170 0
-145 -2 -5 157 0
-158 -4 -9 170 0
-145 -1 -5 -157 0
-158 -3 -9 -170 0
-145 -1 -5 -196 0
-158 -3 -9 -209 0
-19 -5 -146 159 0
-19 -5 -149 162 0
-32 -9 -159 172 0
-32 -9 -162 175 0
-19 -1 -6 33 0
-32 -3 -10 46 0
-19 -1 -6 -159 0
-32 -3 -10 -172 0
-19 -1 -6 -31 0
-19 -1 -6 -36 0
-32 -3 -10 -44 0
-32 -3 -10 -49 0
-19 -2 -6 146 0
-32 -4 -10 159 0
-19 -2 -6 -159 0
-32 -4 -10 -172 0
-145 -2 -6 159 0
-158 -4 -10 172 0
-145 -1 -6 -159 0
-158 -3 -10 -172 0
-145 -1 -6 -198 0
-158 -3 -10 -211 0
-19 -6 -144 157 0
-19 -6 -149 162 0
-32 -10 -157 170 0
-32 -10 -162 175 0
-19 -1 -8 36 0
-32 -3 -12 49 0
-19 -1 -8 -162 0
-32 -3 -12 -175 0
-19 -1 -8 -31 0
-19 -1 -8 -33 0
-32 -3 -12 -44 0
-32 -3 -12 -46 0
-19 -2 -8 149 0
-32 -4 -12 162 0
-19 -2 -8 -162 0
-32 -4 -12 -175 0
-145 -2 -8 162 0
-158 -4 -12 175 0
-145 -1 -8 -162 0
-158 -3 -12 -175 0
-145 -1 -8 -201 0
-158 -3 -12 -214 0
-19 -8 -144 157 0
-19 -8 -146 159 0
-32 -12 -157 170 0
-32 -12 -159 172 0
-185 198 0
-198 211 0
-20 -26 0
-20 -27 0
-20 -28 0
-20 -29 0
-20 -30 0
-20 -31 0
-20 -35 0
-20 -36 0
-20 -38 0
-33 -39 0
-33 -40 0
-33 -41 0
-33 -42 0
-33 -43 0
-33 -44 0
-33 -48 0
-33 -49 0
-33 -51 0
-20 -33 2 0
-33 -46 4 0
-20 -7 0
-33 -11 0
-20 -139 152 0
-20 -140 153 0
-20 -141 154 0
-20 -142 155 0
-20 -143 156 0
-20 -144 157 0
-20 -148 161 0
-20 -149 162 0
-20 -151 164 0
-33 -152 165 0
-33 -153 166 0
-33 -154 167 0
-33 -155 168 0
-33 -156 169 0
-33 -157 170 0
-33 -161 174 0
-33 -162 175 0
-33 -164 177 0
-146 2 159 0
-159 4 172 0
-20 33 1 0
-33 46 3 0
-20 -1 -5 32 0
-33 -3 -9 45 0
-20 -1 -5 -158 0
-33 -3 -9 -171 0
-20 -1 -5 -34 0
-20 -1 -5 -37 0
-33 -3 -9 -47 0
-33 -3 -9 -50 0
-20 -2 -5 145 0
-33 -4 -9 158 0
-20 -2 -5 -158 0
-33 -4 -9 -171 0
-146 -2 -5 158 0
-159 -4 -9 171 0
-146 -1 -5 -158 0
-159 -3 -9 -171 0
-146 -1 -5 -197 0
-159 -3 -9 -210 0
-20 -5 -147 160 0
-20 -5 -150 163 0
-33 -9 -160 173 0
-33 -9 -163 176 0
-20 -1 -6 34 0
-33 -3 -10 47 0
-20 -1 -6 -160 0
-33 -3 -10 -173 0
-20 -1 -6 -32 0
-20 -1 -6 -37 0
-33 -3 -10 -45 0
-33 -3 -10 -50 0
-20 -2 -6 147 0
-33 -4 -10 160 0
-20 -2 -6 -160 0
-33 -4 -10 -173 0
-146 -2 -6 160 0
-159 -4 -10 173 0
-146 -1 -6 -160 0
-159 -3 -10 -173 0
-146 -1 -6 -199 0
-159 -3 -10 -212 0
-20 -6 -145 158 0
-20 -6 -150 163 0
-33 -10 -158 171 0
-33 -10 -163 176 0
-20 -1 -8 37 0
-33 -3 -12 50 0
-20 -1 -8 -163 0
-33 -3 -12 -176 0
-20 -1 -8 -32 0
-20 -1 -8 -34 0
-33 -3 -12 -45 0
-33 -3 -12 -47 0
-20 -2 -8 150 0
-33 -4 -12 163 0
-20 -2 -8 -163 0
-33 -4 -12 -176 0
-146 -2 -8 163 0
-159 -4 -12 176 0
-146 -1 -8 -163 0
-159 -3 -12 -176 0
-146 -1 -8 -202 0
-159 -3 -12 -215 0
-20 -8 -145 158 0
-20 -8 -147 160 0
-33 -12 -158 171 0
-33 -12 -160 173 0
-186 199 0
-199 212 0
-21 -26 0
-21 -27 0
-21 -28 0
-21 -29 0
-21 -31 0
-21 -32 0
-21 -35 0
-21 -36 0
-21 -37 0
-34 -39 0
-34 -40 0
-34 -41 0
-34 -42 0
-34 -44 0
-34 -45 0
-34 -48 0
-34 -49 0
-34 -50 0
-21 -34 2 0
-34 -47 4 0
-21 -6 0
-34 -10 0
-21 -139 152 0
-21 -140 153 0
-21 -141 154 0
-21 -142 155 0
-21 -144 157 0
-21 -145 158 0
-21 -148 161 0
-21 -149 162 0
-21 -150 163 0
-34 -152 165 0
-34 -153 166 0
-34 -154 167 0
-34 -155 168 0
-34 -157 170 0
-34 -158 171 0
-34 -161 174 0
-34 -162 175 0
-34 -163 176 0
-147 2 160 0
-160 4 173 0
-21 34 1 0
-34 47 3 0
-21 -1 -5 33 0
-34 -3 -9 46 0
-21 -1 -5 -159 0
-34 -3 -9 -172 0
-21 -1 -5 -30 0
-21 -1 -5 -38 0
-34 -3 -9 -43 0
-34 -3 -9 -51 0
-21 -2 -5 146 0
-34 -4 -9 159 0
-21 -2 -5 -159 0
-34 -4 -9 -172 0
-147 -2 -5 159 0
-160 -4 -9 172 0
-147 -1 -5 -159 0
-160 -3 -9 -172 0
-147 -1 -5 -198 0
-160 -3 -9 -211 0
-21 -5 -143 156 0
-21 -5 -151 164 0
-34 -9 -156 169 0
-34 -9 -164 177 0
-21 -1 -7 30 0
-34 -3 -11 43 0
-21 -1 -7 -156 0
-34 -3 -11 -169 0
-21 -1 -7 -33 0
-21 -1 -7 -38 0
-34 -3 -11 -46 0
-34 -3 -11 -51 0
-21 -2 -7 143 0
-34 -4 -11 156 0
-21 -2 -7 -156 0
-34 -4 -11 -169 0
-147 -2 -7 156 0
-160 -4 -11 169 0
-147 -1 -7 -156 0
-160 -3 -11 -169 0
-147 -1 -7 -195 0
-160 -3 -11 -208 0
-21 -7 -146 159 0
-21 -7 -151 164 0
-34 -11 -159 172 0
-34 -11 -164 177 0
-21 -1 -8 38 0
-34 -3 -12 51 0
-21 -1 -8 -164 0
-34 -3 -12 -177 0
-21 -1 -8 -33 0
-21 -1 -8 -30 0
-34 -3 -12 -46 0
-34 -3 -12 -43 0
-21 -2 -8 151 0
-34 -4 -12 164 0
-21 -2 -8 -164 0
-34 -4 -12 -177 0
-147 -2 -8 164 0
-160 -4 -12 177 0
-147 -1 -8 -164 0
-160 -3 -12 -177 0
-147 -1 -8 -203 0
-160 -3 -12 -216 0
-21 -8 -146 159 0
-21 -8 -143 156 0
-34 -12 -159 172 0
-34 -12 -156 169 0
-187 200 0
-200 213 0
-22 -26 0
-22 -27 0
-22 -28 0
-22 -29 0
-22 -30 0
-22 -32 0
-22 -33 0
-22 -34 0
-22 -37 0
-22 -38 0
-35 -39 0
-35 -40 0
-35 -41 0
-35 -42 0
-35 -43 0
-35 -45 0
-35 -46 0
-35 -47 0
-35 -50 0
-35 -51 0
-22 -35 2 0
-35 -48 4 0
-22 -5 0
-22 -8 0
-35 -9 0
-35 -12 0
-22 -139 152 0
-22 -140 153 0
-22 -141 154 0
-22 -142 155 0
-22 -143 156 0
-22 -145 158 0
-22 -146 159 0
-22 -147 160 0
-22 -150 163 0
-22 -151 164 0
-35 -152 165 0
-35 -153 166 0
-35 -154 167 0
-35 -155 168 0
-35 -156 169 0
-35 -158 171 0
-35 -159 172 0
-35 -160 173 0
-35 -163 176 0
-35 -164 177 0
-148 2 161 0
-161 4 174 0
-22 35 1 0
-35 48 3 0
-22 -1 -6 36 0
-35 -3 -10 49 0
-22 -1 -6 -162 0
-35 -3 -10 -175 0
-22 -1 -6 -31 0
-35 -3 -10 -44 0
-22 -2 -6 149 0
-35 -4 -10 162 0
-22 -2 -6 -162 0
-35 -4 -10 -175 0
-148 -2 -6 162 0
-161 -4 -10 175 0
-148 -1 -6 -162 0
-161 -3 -10 -175 0
-148 -1 -6 -201 0
-161 -3 -10 -214 0
-22 -6 -144 157 0
-35 -10 -157 170 0
-22 -1 -7 31 0
-35 -3 -11 44 0
-22 -1 -7 -157 0
-35 -3 -11 -170 0
-22 -1 -7 -36 0
-35 -3 -11 -49 0
-22 -2 -7 144 0
-35 -4 -11 157 0
-22 -2 -7 -157 0
-35 -4 -11 -170 0
-148 -2 -7 157 0
-161 -4 -11 170 0
-148 -1 -7 -157 0
-161 -3 -11 -170 0
-148 -1 -7 -196 0
-161 -3 -11 -209 0
-22 -7 -149 162 0
-35 -11 -162 175 0
-188 201 0
-201 214 0
-23 -26 0
-23 -27 0
-23 -28 0
-23 -29 0
-23 -30 0
-23 -31 0
-23 -33 0
-23 -34 0
-23 -38 0
-36 -39 0
-36 -40 0
-36 -41 0
-36 -42 0
-36 -43 0
-36 -44 0
-36 -46 0
-36 -47 0
-36 -51 0
-23 -36 2 0
-36 -49 4 0
-23 -8 0
-36 -12 0
-23 -139 152 0
-23 -140 153 0
-23 -141 154 0
-23 -142 155 0
-23 -143 156 0
-23 -144 157 0
-23 -146 159 0
-23 -147 160 0
-23 -151 164 0
-36 -152 165 0
-36 -153 166 0
-36 -154 167 0
-36 -155 168 0
-36 -156 169 0
-36 -157 170 0
-36 -159 172 0
-36 -160 173 0
-36 -164 177 0
-149 2 162 0
-162 4 175 0
-23 36 1 0
-36 49 3 0
-23 -1 -5 35 0
-36 -3 -9 48 0
-23 -1 -5 -161 0
-36 -3 -9 -174 0
-23 -1 -5 -37 0
-23 -1 -5 -32 0
-36 -3 -9 -50 0
-36 -3 -9 -45 0
-23 -2 -5 148 0
-36 -4 -9 161 0
-23 -2 -5 -161 0
-36 -4 -9 -174 0
-149 -2 -5 161 0
-162 -4 -9 174 0
-149 -1 -5 -161 0
-162 -3 -9 -174 0
-149 -1 -5 -200 0
-162 -3 -9 -213 0
-23 -5 -150 163 0
-23 -5 -145 158 0
-36 -9 -163 176 0
-36 -9 -158 171 0
-23 -1 -6 37 0
-36 -3 -10 50 0
-23 -1 -6 -163 0
-36 -3 -10 -176 0
-23 -1 -6 -35 0
-23 -1 -6 -32 0
-36 -3 -10 -48 0
-36 -3 -10 -45 0
-23 -2 -6 150 0
-36 -4 -10 163 0
-23 -2 -6 -163 0
-36 -4 -10 -176 0
-149 -2 -6 163 0
-162 -4 -10 176 0
-149 -1 -6 -163 0
-162 -3 -10 -176 0
-149 -1 -6 -202 0
-162 -3 -10 -215 0
-23 -6 -148 161 0
-23 -6 -145 158 0
-36 -10 -161 174 0
-36 -10 -158 171 0
-23 -1 -7 32 0
-36 -3 -11 45 0
-23 -1 -7 -158 0
-36 -3 -11 -171 0
-23 -1 -7 -35 0
-23 -1 -7 -37 0
-36 -3 -11 -48 0
-36 -3 -11 -50 0
-23 -2 -7 145 0
-36 -4 -11 158 0
-23 -2 -7 -158 0
-36 -4 -11 -171 0
-149 -2 -7 158 0
-162 -4 -11 171 0
-149 -1 -7 -158 0
-162 -3 -11 -171 0
-149 -1 -7 -197 0
-162 -3 -11 -210 0
-23 -7 -148 161 0
-23 -7 -150 163 0
-36 -11 -161 174 0
-36 -11 -163 176 0
-189 202 0
-202 215 0
-24 -26 0
-24 -27 0
-24 -28 0
-24 -29 0
-24 -30 0
-24 -31 0
-24 -32 0
-24 -34 0
-24 -35 0
-37 -39 0
-37 -40 0
-37 -41 0
-37 -42 0
-37 -43 0
-37 -44 0
-37 -45 0
-37 -47 0
-37 -48 0
-24 -37 2 0
-37 -50 4 0
-24 -8 0
-37 -12 0
-24 -139 152 0
-24 -140 153 0
-24 -141 154 0
-24 -142 155 0
-24 -143 156 0
-24 -144 157 0
-24 -145 158 0
-24 -147 160 0
-24 -148 161 0
-37 -152 165 0
-37 -153 166 0
-37 -154 167 0
-37 -155 168 0
-37 -156 169 0
-37 -157 170 0
-37 -158 171 0
-37 -160 173 0
-37 -161 174 0
-150 2 163 0
-163 4 176 0
-24 37 1 0
-37 50 3 0
-24 -1 -5 36 0
-37 -3 -9 49 0
-24 -1 -5 -162 0
-37 -3 -9 -175 0
-24 -1 -5 -38 0
-24 -1 -5 -33 0
-37 -3 -9 -51 0
-37 -3 -9 -46 0
-24 -2 -5 149 0
-37 -4 -9 162 0
-24 -2 -5 -162 0
-37 -4 -9 -175 0
-150 -2 -5 162 0
-163 -4 -9 175 0
-150 -1 -5 -162 0
-163 -3 -9 -175 0
-150 -1 -5 -201 0
-163 -3 -9 -214 0
-24 -5 -151 164 0
-24 -5 -146 159 0
-37 -9 -164 177 0
-37 -9 -159 172 0
-24 -1 -6 38 0
-37 -3 -10 51 0
-24 -1 -6 -164 0
-37 -3 -10 -177 0
-24 -1 -6 -36 0
-24 -1 -6 -33 0
-37 -3 -10 -49 0
-37 -3 -10 -46 0
-24 -2 -6 151 0
-37 -4 -10 164 0
-24 -2 -6 -164 0
-37 -4 -10 -177 0
-150 -2 -6 164 0
-163 -4 -10 177 0
-150 -1 -6 -164 0
-163 -3 -10 -177 0
-150 -1 -6 -203 0
-163 -3 -10 -216 0
-24 -6 -149 162 0
-24 -6 -146 159 0
-37 -10 -162 175 0
-37 -10 -159 172 0
-24 -1 -7 33 0
-37 -3 -11 46 0
-24 -1 -7 -159 0
-37 -3 -11 -172 0
-24 -1 -7 -36 0
-24 -1 -7 -38 0
-37 -3 -11 -49 0
-37 -3 -11 -51 0
-24 -2 -7 146 0
-37 -4 -11 159 0
-24 -2 -7 -159 0
-37 -4 -11 -172 0
-150 -2 -7 159 0
-163 -4 -11 172 0
-150 -1 -7 -159 0
-163 -3 -11 -172 0
-150 -1 -7 -198 0
-163 -3 -11 -211 0
-24 -7 -149 162 0
-24 -7 -151 164 0
-37 -11 -162 175 0
-37 -11 -164 177 0
-190 203 0
-203 216 0
-25 -26 0
-25 -27 0
-25 -28 0
-25 -29 0
-25 -30 0
-25 -31 0
-25 -32 0
-25 -33 0
-25 -35 0
-25 -36 0
-38 -39 0
-38 -40 0
-38 -41 0
-38 -42 0
-38 -43 0
-38 -44 0
-38 -45 0
-38 -46 0
-38 -48 0
-38 -49 0
-25 -38 2 0
-38 -51 4 0
-25 -6 0
-25 -8 0
-38 -10 0
-38 -12 0
-25 -139 152 0
-25 -140 153 0
-25 -141 154 0
-25 -142 155 0
-25 -143 156 0
-25 -144 157 0
-25 -145 158 0
-25 -146 159 0
-25 -148 161 0
-25 -149 162 0
-38 -152 165 0
-38 -153 166 0
-38 -154 167 0
-38 -155 168 0
-38 -156 169 0
-38 -157 170 0
-38 -158 171 0
-38 -159 172 0
-38 -161 174 0
-38 -162 175 0
-151 2 164 0
-164 4 177 0
-25 38 1 0
-38 51 3 0
-25 -1 -5 37 0
-38 -3 -9 50 0
-25 -1 -5 -163 0
-38 -3 -9 -176 0
-25 -1 -5 -34 0
-38 -3 -9 -47 0
-25 -2 -5 150 0
-38 -4 -9 163 0
-25 -2 -5 -163 0
-38 -4 -9 -176 0
-151 -2 -5 163 0
-164 -4 -9 176 0
-151 -1 -5 -163 0
-164 -3 -9 -176 0
-151 -1 -5 -202 0
-164 -3 -9 -215 0
-25 -5 -147 160 0
-38 -9 -160 173 0
-25 -1 -7 34 0
-38 -3 -11 47 0
-25 -1 -7 -160 0
-38 -3 -11 -173 0
-25 -1 -7 -37 0
-38 -3 -11 -50 0
-25 -2 -7 147 0
-38 -4 -11 160 0
-25 -2 -7 -160 0
-38 -4 -11 -173 0
-151 -2 -7 160 0
-164 -4 -11 173 0
-151 -1 -7 -160 0
-164 -3 -11 -173 0
-151 -1 -7 -199 0
-164 -3 -11 -212 0
-25 -7 -150 163 0
-38 -11 -163 176 0
43 0
